(set-logic QF_LRA)
(declare-fun T1 () Real )
(declare-fun T2 () Real )
(declare-fun T3 () Real )
(declare-fun T4 () Real )
(declare-fun T5 () Real )
(declare-fun T6 () Real )
(declare-fun T7 () Real )
(declare-fun T8 () Real )
(declare-fun Z () Real )
(assert ( and 
(or ( <= ( + T1 6 ) T2 ) ( <= ( + T2 94 ) T1 ) )
(or ( <= ( + T1 73 )  ( + T2 94 ) ) ( <= ( + T2 176 )( + T1 6 ) ) )
(or ( <= ( + T1 80 )  ( + T2 176 ) ) ( <= ( + T2 225 )( + T1 73 ) ) )
(or ( <= ( + T1 102 )  ( + T2 225 ) ) ( <= ( + T2 256 )( + T1 80 ) ) )
(or ( <= ( + T1 161 )  ( + T2 256 ) ) ( <= ( + T2 322 )( + T1 102 ) ) )
(or ( <= ( + T1 183 )  ( + T2 322 ) ) ( <= ( + T2 398 )( + T1 161 ) ) )
(or ( <= ( + T1 6 ) T3 ) ( <= ( + T3 1 ) T1 ) )
(or ( <= ( + T1 73 )  ( + T3 1 ) ) ( <= ( + T3 31 )( + T1 6 ) ) )
(or ( <= ( + T1 80 )  ( + T3 31 ) ) ( <= ( + T3 84 )( + T1 73 ) ) )
(or ( <= ( + T1 102 )  ( + T3 84 ) ) ( <= ( + T3 113 )( + T1 80 ) ) )
(or ( <= ( + T1 161 )  ( + T3 113 ) ) ( <= ( + T3 133 )( + T1 102 ) ) )
(or ( <= ( + T1 183 )  ( + T3 133 ) ) ( <= ( + T3 194 )( + T1 161 ) ) )
(or ( <= ( + T1 6 ) T4 ) ( <= ( + T4 1 ) T1 ) )
(or ( <= ( + T1 73 )  ( + T4 1 ) ) ( <= ( + T4 7 )( + T1 6 ) ) )
(or ( <= ( + T1 80 )  ( + T4 7 ) ) ( <= ( + T4 97 )( + T1 73 ) ) )
(or ( <= ( + T1 102 )  ( + T4 97 ) ) ( <= ( + T4 118 )( + T1 80 ) ) )
(or ( <= ( + T1 161 )  ( + T4 118 ) ) ( <= ( + T4 198 )( + T1 102 ) ) )
(or ( <= ( + T1 183 )  ( + T4 198 ) ) ( <= ( + T4 272 )( + T1 161 ) ) )
(or ( <= ( + T1 6 ) T5 ) ( <= ( + T5 39 ) T1 ) )
(or ( <= ( + T1 73 )  ( + T5 39 ) ) ( <= ( + T5 135 )( + T1 6 ) ) )
(or ( <= ( + T1 80 )  ( + T5 135 ) ) ( <= ( + T5 193 )( + T1 73 ) ) )
(or ( <= ( + T1 102 )  ( + T5 193 ) ) ( <= ( + T5 217 )( + T1 80 ) ) )
(or ( <= ( + T1 161 )  ( + T5 217 ) ) ( <= ( + T5 232 )( + T1 102 ) ) )
(or ( <= ( + T1 183 )  ( + T5 232 ) ) ( <= ( + T5 287 )( + T1 161 ) ) )
(or ( <= ( + T1 6 ) T6 ) ( <= ( + T6 26 ) T1 ) )
(or ( <= ( + T1 73 )  ( + T6 26 ) ) ( <= ( + T6 98 )( + T1 6 ) ) )
(or ( <= ( + T1 80 )  ( + T6 98 ) ) ( <= ( + T6 120 )( + T1 73 ) ) )
(or ( <= ( + T1 102 )  ( + T6 120 ) ) ( <= ( + T6 152 )( + T1 80 ) ) )
(or ( <= ( + T1 161 )  ( + T6 152 ) ) ( <= ( + T6 246 )( + T1 102 ) ) )
(or ( <= ( + T1 183 )  ( + T6 246 ) ) ( <= ( + T6 278 )( + T1 161 ) ) )
(or ( <= ( + T1 6 ) T7 ) ( <= ( + T7 6 ) T1 ) )
(or ( <= ( + T1 73 )  ( + T7 6 ) ) ( <= ( + T7 45 )( + T1 6 ) ) )
(or ( <= ( + T1 80 )  ( + T7 45 ) ) ( <= ( + T7 110 )( + T1 73 ) ) )
(or ( <= ( + T1 102 )  ( + T7 110 ) ) ( <= ( + T7 116 )( + T1 80 ) ) )
(or ( <= ( + T1 161 )  ( + T7 116 ) ) ( <= ( + T7 185 )( + T1 102 ) ) )
(or ( <= ( + T1 183 )  ( + T7 185 ) ) ( <= ( + T7 215 )( + T1 161 ) ) )
(or ( <= ( + T1 6 ) T8 ) ( <= ( + T8 33 ) T1 ) )
(or ( <= ( + T1 73 )  ( + T8 33 ) ) ( <= ( + T8 103 )( + T1 6 ) ) )
(or ( <= ( + T1 80 )  ( + T8 103 ) ) ( <= ( + T8 114 )( + T1 73 ) ) )
(or ( <= ( + T1 102 )  ( + T8 114 ) ) ( <= ( + T8 200 )( + T1 80 ) ) )
(or ( <= ( + T1 161 )  ( + T8 200 ) ) ( <= ( + T8 250 )( + T1 102 ) ) )
(or ( <= ( + T1 183 )  ( + T8 250 ) ) ( <= ( + T8 280 )( + T1 161 ) ) )
(or ( <= ( + T2 94 ) T3 ) ( <= ( + T3 1 ) T2 ) )
(or ( <= ( + T2 176 )  ( + T3 1 ) ) ( <= ( + T3 31 )( + T2 94 ) ) )
(or ( <= ( + T2 225 )  ( + T3 31 ) ) ( <= ( + T3 84 )( + T2 176 ) ) )
(or ( <= ( + T2 256 )  ( + T3 84 ) ) ( <= ( + T3 113 )( + T2 225 ) ) )
(or ( <= ( + T2 322 )  ( + T3 113 ) ) ( <= ( + T3 133 )( + T2 256 ) ) )
(or ( <= ( + T2 398 )  ( + T3 133 ) ) ( <= ( + T3 194 )( + T2 322 ) ) )
(or ( <= ( + T2 94 ) T4 ) ( <= ( + T4 1 ) T2 ) )
(or ( <= ( + T2 176 )  ( + T4 1 ) ) ( <= ( + T4 7 )( + T2 94 ) ) )
(or ( <= ( + T2 225 )  ( + T4 7 ) ) ( <= ( + T4 97 )( + T2 176 ) ) )
(or ( <= ( + T2 256 )  ( + T4 97 ) ) ( <= ( + T4 118 )( + T2 225 ) ) )
(or ( <= ( + T2 322 )  ( + T4 118 ) ) ( <= ( + T4 198 )( + T2 256 ) ) )
(or ( <= ( + T2 398 )  ( + T4 198 ) ) ( <= ( + T4 272 )( + T2 322 ) ) )
(or ( <= ( + T2 94 ) T5 ) ( <= ( + T5 39 ) T2 ) )
(or ( <= ( + T2 176 )  ( + T5 39 ) ) ( <= ( + T5 135 )( + T2 94 ) ) )
(or ( <= ( + T2 225 )  ( + T5 135 ) ) ( <= ( + T5 193 )( + T2 176 ) ) )
(or ( <= ( + T2 256 )  ( + T5 193 ) ) ( <= ( + T5 217 )( + T2 225 ) ) )
(or ( <= ( + T2 322 )  ( + T5 217 ) ) ( <= ( + T5 232 )( + T2 256 ) ) )
(or ( <= ( + T2 398 )  ( + T5 232 ) ) ( <= ( + T5 287 )( + T2 322 ) ) )
(or ( <= ( + T2 94 ) T6 ) ( <= ( + T6 26 ) T2 ) )
(or ( <= ( + T2 176 )  ( + T6 26 ) ) ( <= ( + T6 98 )( + T2 94 ) ) )
(or ( <= ( + T2 225 )  ( + T6 98 ) ) ( <= ( + T6 120 )( + T2 176 ) ) )
(or ( <= ( + T2 256 )  ( + T6 120 ) ) ( <= ( + T6 152 )( + T2 225 ) ) )
(or ( <= ( + T2 322 )  ( + T6 152 ) ) ( <= ( + T6 246 )( + T2 256 ) ) )
(or ( <= ( + T2 398 )  ( + T6 246 ) ) ( <= ( + T6 278 )( + T2 322 ) ) )
(or ( <= ( + T2 94 ) T7 ) ( <= ( + T7 6 ) T2 ) )
(or ( <= ( + T2 176 )  ( + T7 6 ) ) ( <= ( + T7 45 )( + T2 94 ) ) )
(or ( <= ( + T2 225 )  ( + T7 45 ) ) ( <= ( + T7 110 )( + T2 176 ) ) )
(or ( <= ( + T2 256 )  ( + T7 110 ) ) ( <= ( + T7 116 )( + T2 225 ) ) )
(or ( <= ( + T2 322 )  ( + T7 116 ) ) ( <= ( + T7 185 )( + T2 256 ) ) )
(or ( <= ( + T2 398 )  ( + T7 185 ) ) ( <= ( + T7 215 )( + T2 322 ) ) )
(or ( <= ( + T2 94 ) T8 ) ( <= ( + T8 33 ) T2 ) )
(or ( <= ( + T2 176 )  ( + T8 33 ) ) ( <= ( + T8 103 )( + T2 94 ) ) )
(or ( <= ( + T2 225 )  ( + T8 103 ) ) ( <= ( + T8 114 )( + T2 176 ) ) )
(or ( <= ( + T2 256 )  ( + T8 114 ) ) ( <= ( + T8 200 )( + T2 225 ) ) )
(or ( <= ( + T2 322 )  ( + T8 200 ) ) ( <= ( + T8 250 )( + T2 256 ) ) )
(or ( <= ( + T2 398 )  ( + T8 250 ) ) ( <= ( + T8 280 )( + T2 322 ) ) )
(or ( <= ( + T3 1 ) T4 ) ( <= ( + T4 1 ) T3 ) )
(or ( <= ( + T3 31 )  ( + T4 1 ) ) ( <= ( + T4 7 )( + T3 1 ) ) )
(or ( <= ( + T3 84 )  ( + T4 7 ) ) ( <= ( + T4 97 )( + T3 31 ) ) )
(or ( <= ( + T3 113 )  ( + T4 97 ) ) ( <= ( + T4 118 )( + T3 84 ) ) )
(or ( <= ( + T3 133 )  ( + T4 118 ) ) ( <= ( + T4 198 )( + T3 113 ) ) )
(or ( <= ( + T3 194 )  ( + T4 198 ) ) ( <= ( + T4 272 )( + T3 133 ) ) )
(or ( <= ( + T3 1 ) T5 ) ( <= ( + T5 39 ) T3 ) )
(or ( <= ( + T3 31 )  ( + T5 39 ) ) ( <= ( + T5 135 )( + T3 1 ) ) )
(or ( <= ( + T3 84 )  ( + T5 135 ) ) ( <= ( + T5 193 )( + T3 31 ) ) )
(or ( <= ( + T3 113 )  ( + T5 193 ) ) ( <= ( + T5 217 )( + T3 84 ) ) )
(or ( <= ( + T3 133 )  ( + T5 217 ) ) ( <= ( + T5 232 )( + T3 113 ) ) )
(or ( <= ( + T3 194 )  ( + T5 232 ) ) ( <= ( + T5 287 )( + T3 133 ) ) )
(or ( <= ( + T3 1 ) T6 ) ( <= ( + T6 26 ) T3 ) )
(or ( <= ( + T3 31 )  ( + T6 26 ) ) ( <= ( + T6 98 )( + T3 1 ) ) )
(or ( <= ( + T3 84 )  ( + T6 98 ) ) ( <= ( + T6 120 )( + T3 31 ) ) )
(or ( <= ( + T3 113 )  ( + T6 120 ) ) ( <= ( + T6 152 )( + T3 84 ) ) )
(or ( <= ( + T3 133 )  ( + T6 152 ) ) ( <= ( + T6 246 )( + T3 113 ) ) )
(or ( <= ( + T3 194 )  ( + T6 246 ) ) ( <= ( + T6 278 )( + T3 133 ) ) )
(or ( <= ( + T3 1 ) T7 ) ( <= ( + T7 6 ) T3 ) )
(or ( <= ( + T3 31 )  ( + T7 6 ) ) ( <= ( + T7 45 )( + T3 1 ) ) )
(or ( <= ( + T3 84 )  ( + T7 45 ) ) ( <= ( + T7 110 )( + T3 31 ) ) )
(or ( <= ( + T3 113 )  ( + T7 110 ) ) ( <= ( + T7 116 )( + T3 84 ) ) )
(or ( <= ( + T3 133 )  ( + T7 116 ) ) ( <= ( + T7 185 )( + T3 113 ) ) )
(or ( <= ( + T3 194 )  ( + T7 185 ) ) ( <= ( + T7 215 )( + T3 133 ) ) )
(or ( <= ( + T3 1 ) T8 ) ( <= ( + T8 33 ) T3 ) )
(or ( <= ( + T3 31 )  ( + T8 33 ) ) ( <= ( + T8 103 )( + T3 1 ) ) )
(or ( <= ( + T3 84 )  ( + T8 103 ) ) ( <= ( + T8 114 )( + T3 31 ) ) )
(or ( <= ( + T3 113 )  ( + T8 114 ) ) ( <= ( + T8 200 )( + T3 84 ) ) )
(or ( <= ( + T3 133 )  ( + T8 200 ) ) ( <= ( + T8 250 )( + T3 113 ) ) )
(or ( <= ( + T3 194 )  ( + T8 250 ) ) ( <= ( + T8 280 )( + T3 133 ) ) )
(or ( <= ( + T4 1 ) T5 ) ( <= ( + T5 39 ) T4 ) )
(or ( <= ( + T4 7 )  ( + T5 39 ) ) ( <= ( + T5 135 )( + T4 1 ) ) )
(or ( <= ( + T4 97 )  ( + T5 135 ) ) ( <= ( + T5 193 )( + T4 7 ) ) )
(or ( <= ( + T4 118 )  ( + T5 193 ) ) ( <= ( + T5 217 )( + T4 97 ) ) )
(or ( <= ( + T4 198 )  ( + T5 217 ) ) ( <= ( + T5 232 )( + T4 118 ) ) )
(or ( <= ( + T4 272 )  ( + T5 232 ) ) ( <= ( + T5 287 )( + T4 198 ) ) )
(or ( <= ( + T4 1 ) T6 ) ( <= ( + T6 26 ) T4 ) )
(or ( <= ( + T4 7 )  ( + T6 26 ) ) ( <= ( + T6 98 )( + T4 1 ) ) )
(or ( <= ( + T4 97 )  ( + T6 98 ) ) ( <= ( + T6 120 )( + T4 7 ) ) )
(or ( <= ( + T4 118 )  ( + T6 120 ) ) ( <= ( + T6 152 )( + T4 97 ) ) )
(or ( <= ( + T4 198 )  ( + T6 152 ) ) ( <= ( + T6 246 )( + T4 118 ) ) )
(or ( <= ( + T4 272 )  ( + T6 246 ) ) ( <= ( + T6 278 )( + T4 198 ) ) )
(or ( <= ( + T4 1 ) T7 ) ( <= ( + T7 6 ) T4 ) )
(or ( <= ( + T4 7 )  ( + T7 6 ) ) ( <= ( + T7 45 )( + T4 1 ) ) )
(or ( <= ( + T4 97 )  ( + T7 45 ) ) ( <= ( + T7 110 )( + T4 7 ) ) )
(or ( <= ( + T4 118 )  ( + T7 110 ) ) ( <= ( + T7 116 )( + T4 97 ) ) )
(or ( <= ( + T4 198 )  ( + T7 116 ) ) ( <= ( + T7 185 )( + T4 118 ) ) )
(or ( <= ( + T4 272 )  ( + T7 185 ) ) ( <= ( + T7 215 )( + T4 198 ) ) )
(or ( <= ( + T4 1 ) T8 ) ( <= ( + T8 33 ) T4 ) )
(or ( <= ( + T4 7 )  ( + T8 33 ) ) ( <= ( + T8 103 )( + T4 1 ) ) )
(or ( <= ( + T4 97 )  ( + T8 103 ) ) ( <= ( + T8 114 )( + T4 7 ) ) )
(or ( <= ( + T4 118 )  ( + T8 114 ) ) ( <= ( + T8 200 )( + T4 97 ) ) )
(or ( <= ( + T4 198 )  ( + T8 200 ) ) ( <= ( + T8 250 )( + T4 118 ) ) )
(or ( <= ( + T4 272 )  ( + T8 250 ) ) ( <= ( + T8 280 )( + T4 198 ) ) )
(or ( <= ( + T5 39 ) T6 ) ( <= ( + T6 26 ) T5 ) )
(or ( <= ( + T5 135 )  ( + T6 26 ) ) ( <= ( + T6 98 )( + T5 39 ) ) )
(or ( <= ( + T5 193 )  ( + T6 98 ) ) ( <= ( + T6 120 )( + T5 135 ) ) )
(or ( <= ( + T5 217 )  ( + T6 120 ) ) ( <= ( + T6 152 )( + T5 193 ) ) )
(or ( <= ( + T5 232 )  ( + T6 152 ) ) ( <= ( + T6 246 )( + T5 217 ) ) )
(or ( <= ( + T5 287 )  ( + T6 246 ) ) ( <= ( + T6 278 )( + T5 232 ) ) )
(or ( <= ( + T5 39 ) T7 ) ( <= ( + T7 6 ) T5 ) )
(or ( <= ( + T5 135 )  ( + T7 6 ) ) ( <= ( + T7 45 )( + T5 39 ) ) )
(or ( <= ( + T5 193 )  ( + T7 45 ) ) ( <= ( + T7 110 )( + T5 135 ) ) )
(or ( <= ( + T5 217 )  ( + T7 110 ) ) ( <= ( + T7 116 )( + T5 193 ) ) )
(or ( <= ( + T5 232 )  ( + T7 116 ) ) ( <= ( + T7 185 )( + T5 217 ) ) )
(or ( <= ( + T5 287 )  ( + T7 185 ) ) ( <= ( + T7 215 )( + T5 232 ) ) )
(or ( <= ( + T5 39 ) T8 ) ( <= ( + T8 33 ) T5 ) )
(or ( <= ( + T5 135 )  ( + T8 33 ) ) ( <= ( + T8 103 )( + T5 39 ) ) )
(or ( <= ( + T5 193 )  ( + T8 103 ) ) ( <= ( + T8 114 )( + T5 135 ) ) )
(or ( <= ( + T5 217 )  ( + T8 114 ) ) ( <= ( + T8 200 )( + T5 193 ) ) )
(or ( <= ( + T5 232 )  ( + T8 200 ) ) ( <= ( + T8 250 )( + T5 217 ) ) )
(or ( <= ( + T5 287 )  ( + T8 250 ) ) ( <= ( + T8 280 )( + T5 232 ) ) )
(or ( <= ( + T6 26 ) T7 ) ( <= ( + T7 6 ) T6 ) )
(or ( <= ( + T6 98 )  ( + T7 6 ) ) ( <= ( + T7 45 )( + T6 26 ) ) )
(or ( <= ( + T6 120 )  ( + T7 45 ) ) ( <= ( + T7 110 )( + T6 98 ) ) )
(or ( <= ( + T6 152 )  ( + T7 110 ) ) ( <= ( + T7 116 )( + T6 120 ) ) )
(or ( <= ( + T6 246 )  ( + T7 116 ) ) ( <= ( + T7 185 )( + T6 152 ) ) )
(or ( <= ( + T6 278 )  ( + T7 185 ) ) ( <= ( + T7 215 )( + T6 246 ) ) )
(or ( <= ( + T6 26 ) T8 ) ( <= ( + T8 33 ) T6 ) )
(or ( <= ( + T6 98 )  ( + T8 33 ) ) ( <= ( + T8 103 )( + T6 26 ) ) )
(or ( <= ( + T6 120 )  ( + T8 103 ) ) ( <= ( + T8 114 )( + T6 98 ) ) )
(or ( <= ( + T6 152 )  ( + T8 114 ) ) ( <= ( + T8 200 )( + T6 120 ) ) )
(or ( <= ( + T6 246 )  ( + T8 200 ) ) ( <= ( + T8 250 )( + T6 152 ) ) )
(or ( <= ( + T6 278 )  ( + T8 250 ) ) ( <= ( + T8 280 )( + T6 246 ) ) )
(or ( <= ( + T7 6 ) T8 ) ( <= ( + T8 33 ) T7 ) )
(or ( <= ( + T7 45 )  ( + T8 33 ) ) ( <= ( + T8 103 )( + T7 6 ) ) )
(or ( <= ( + T7 110 )  ( + T8 103 ) ) ( <= ( + T8 114 )( + T7 45 ) ) )
(or ( <= ( + T7 116 )  ( + T8 114 ) ) ( <= ( + T8 200 )( + T7 110 ) ) )
(or ( <= ( + T7 185 )  ( + T8 200 ) ) ( <= ( + T8 250 )( + T7 116 ) ) )
(or ( <= ( + T7 215 )  ( + T8 250 ) ) ( <= ( + T8 280 )( + T7 185 ) ) )
( <= ( + T1 183 ) Z)
( <= ( + T2 398 ) Z)
( <= ( + T3 194 ) Z)
( <= ( + T4 272 ) Z)
( <= ( + T5 287 ) Z)
( <= ( + T6 278 ) Z)
( <= ( + T7 215 ) Z)
( <= ( + T8 280 ) Z)
( >= T1 0 )
( >= T2 0 )
( >= T3 0 )
( >= T4 0 )
( >= T5 0 )
( >= T6 0 )
( >= T7 0 )
( >= T8 0 )
) )
(minimize Z)
(check-sat)